************************************************************************
file with basedata            : n/a
initial value random generator: n/a
************************************************************************
projects                      :  1
jobs (incl. supersource/sink ):  122
horizon                       :  678
RESOURCES
  - renewable                 :  4   R
  - nonrenewable              :  0   N
  - doubly constrained        :  0   D
************************************************************************
PROJECT INFORMATION:
pronr.  #jobs rel.date duedate tardcost  MPM-Time
    1    120      0       79       71       79
************************************************************************
PRECEDENCE RELATIONS:
jobnr.    #modes  #successors   successors
   1        1          3           2   3   4
   2        1          3          17  28  31
   3        1          3           5   8   9
   4        1          2           7  14
   5        1          2           6  11
   6        1          3          16  21  41
   7        1          3          37  54  60
   8        1          2          12 106
   9        1          2          10  13
  10        1          2          87 108
  11        1          3          20  43  68
  12        1          3          24  45  53
  13        1          2          15  40
  14        1          2          18  19
  15        1          1          25
  16        1          3          23  49  69
  17        1          3          22  29  32
  18        1          1          30
  19        1          3          63  65  67
  20        1          3          42  48  78
  21        1          3          76  94 100
  22        1          3          27  35  56
  23        1          3          26  71  72
  24        1          2          25  83
  25        1          1          77
  26        1          1          32
  27        1          2          34 101
  28        1          1          33
  29        1          1          82
  30        1          1          48
  31        1          2          36  50
  32        1          1          57
  33        1          2          39  80
  34        1          1          90
  35        1          2          51 105
  36        1          2          38  44
  37        1          2          47  92
  38        1          1          65
  39        1          1         109
  40        1          1          81
  41        1          3          52  91 112
  42        1          2          62  84
  43        1          1          73
  44        1          1          64
  45        1          3          46  85  89
  46        1          1          73
  47        1          1          87
  48        1          3          55  66  95
  49        1          2          61  88
  50        1          1          99
  51        1          1          99
  52        1          1          58
  53        1          1          58
  54        1          1         111
  55        1          1         116
  56        1          2          79 116
  57        1          1          78
  58        1          3          59 119 120
  59        1          3          70  89  95
  60        1          1          83
  61        1          1          70
  62        1          3          71  86 118
  63        1          1         100
  64        1          1         106
  65        1          1         120
  66        1          1          75
  67        1          1         117
  68        1          2          93 103
  69        1          1         106
  70        1          1         113
  71        1          1          92
  72        1          1          74
  73        1          1         116
  74        1          1         115
  75        1          2          87  92
  76        1          1          83
  77        1          1         102
  78        1          1          99
  79        1          1         110
  80        1          1          96
  81        1          1         104
  82        1          1          98
  83        1          1          96
  84        1          1         108
  85        1          1          98
  86        1          1          94
  87        1          1          90
  88        1          1         111
  89        1          1          97
  90        1          1         117
  91        1          2          95 108
  92        1          1         107
  93        1          2         104 107
  94        1          1         109
  95        1          1         113
  96        1          1         117
  97        1          1         102
  98        1          1         107
  99        1          1         111
 100        1          1         104
 101        1          1         114
 102        1          1         114
 103        1          2         105 110
 104        1          1         105
 105        1          1         113
 106        1          1         114
 107        1          1         109
 108        1          1         115
 109        1          1         112
 110        1          1         118
 111        1          1         115
 112        1          1         119
 113        1          1         118
 114        1          1         121
 115        1          1         119
 116        1          1         121
 117        1          1         120
 118        1          1         121
 119        1          1         122
 120        1          1         122
 121        1          1         122
 122        1          0        
************************************************************************
REQUESTS/DURATIONS:
jobnr. mode duration  R 1  R 2  R 3  R 4
------------------------------------------------------------------------
  1      1     0    
  2      1     3       1   0   1
                       6   0   6
                       2   0   2
                      10   0  10
  3      1     7       4   4   4   4   4   4   4
                       4   4   4   4   4   4   4
                       5   5   5   5   5   5   5
                       7   7   7   7   7   7   7
  4      1     2      10  10
                       1   1
                       3   3
                       8   8
  5      1     4       9   9   9   9
                       3   3   3   3
                       4   4   4   4
                       8   8   8   8
  6      1     5       9   9   9   9   9
                       9   9   9   9   9
                       8   8   8   8   8
                       5   5   5   5   5
  7      1     3       8   8   8
                       3   3   3
                       8   8   8
                      10  10  10
  8      1     6       6   6   6   6   6   6
                       6   6   6   6   6   6
                       1   1   1   1   1   1
                       8   8   8   8   8   8
  9      1     4       3   3   0   3
                       1   1   0   1
                       3   3   0   3
                       3   3   0   3
 10      1     4       8   8   0   8
                       3   3   0   3
                      10  10   0  10
                      10  10   0  10
 11      1     3       2   2   2
                       5   5   5
                      10  10  10
                       5   5   5
 12      1     8       8   8   8   8   8   8   8   8
                       9   9   9   9   9   9   9   9
                       7   7   7   7   7   7   7   7
                       8   8   8   8   8   8   8   8
 13      1     1       0
                       0
                       0
                       0
 14      1     5       3   3   3   3   3
                      10  10  10  10  10
                       4   4   4   4   4
                       6   6   6   6   6
 15      1     1       9
                       7
                       9
                       2
 16      1     7       5   5   5   5   0   5   5
                       9   9   9   9   0   9   9
                       6   6   6   6   0   6   6
                       6   6   6   6   0   6   6
 17      1     2       0   6
                       0   8
                       0   4
                       0   7
 18      1     3       2   2   2
                      10  10  10
                       8   8   8
                       2   2   2
 19      1    10       6   6   6   6   6   6   6   0   6   6
                       9   9   9   9   9   9   9   0   9   9
                       4   4   4   4   4   4   4   0   4   4
                       1   1   1   1   1   1   1   0   1   1
 20      1     8       7   7   7   7   7   7   7   7
                       4   4   4   4   4   4   4   4
                       9   9   9   9   9   9   9   9
                      10  10  10  10  10  10  10  10
 21      1     6       5   5   5   5   5   5
                       8   8   8   8   8   8
                      10  10  10  10  10  10
                       1   1   1   1   1   1
 22      1     4       4   4   4   4
                       3   3   3   3
                       1   1   1   1
                       4   4   4   4
 23      1     8       4   4   4   4   4   4   4   0
                       4   4   4   4   4   4   4   0
                       5   5   5   5   5   5   5   0
                       7   7   7   7   7   7   7   0
 24      1     3       1   0   1
                       9   0   9
                       9   0   9
                       8   0   8
 25      1     2       0   3
                       0   3
                       0   2
                       0   9
 26      1     3       6   6   6
                       4   4   4
                       1   1   1
                      10  10  10
 27      1     8       4   4   4   4   4   4   4   4
                       8   8   8   8   8   8   8   8
                       5   5   5   5   5   5   5   5
                       7   7   7   7   7   7   7   7
 28      1    10       9   9   9   0   9   9   9   9   9   9
                       5   5   5   0   5   5   5   5   5   5
                       1   1   1   0   1   1   1   1   1   1
                      10  10  10   0  10  10  10  10  10  10
 29      1     5       5   5   5   5   5
                       5   5   5   5   5
                       3   3   3   3   3
                       1   1   1   1   1
 30      1     8       1   0   1   1   1   1   0   1
                      10   0  10  10  10  10   0  10
                      10   0  10  10  10  10   0  10
                       4   0   4   4   4   4   0   4
 31      1     4       8   8   0   8
                       1   1   0   1
                      10  10   0  10
                       2   2   0   2
 32      1     3      10  10   0
                       3   3   0
                       2   2   0
                       7   7   0
 33      1    10       0   8   8   8   8   8   8   8   0   8
                       0   4   4   4   4   4   4   4   0   4
                       0   9   9   9   9   9   9   9   0   9
                       0   2   2   2   2   2   2   2   0   2
 34      1     1       6
                       9
                       6
                       2
 35      1     7       9   9   9   0   0   9   9
                       8   8   8   0   0   8   8
                      10  10  10   0   0  10  10
                       4   4   4   0   0   4   4
 36      1     1       6
                       3
                       1
                       2
 37      1     1       2
                       2
                       6
                       4
 38      1    10       0   1   0   1   1   1   1   1   1   1
                       0   7   0   7   7   7   7   7   7   7
                       0   1   0   1   1   1   1   1   1   1
                       0   9   0   9   9   9   9   9   9   9
 39      1     7       0   3   3   3   3   3   0
                       0   2   2   2   2   2   0
                       0  10  10  10  10  10   0
                       0   9   9   9   9   9   0
 40      1     8       0  10  10  10  10  10  10  10
                       0   9   9   9   9   9   9   9
                       0   7   7   7   7   7   7   7
                       0   3   3   3   3   3   3   3
 41      1     9       5   5   5   5   5   5   5   5   5
                       2   2   2   2   2   2   2   2   2
                       2   2   2   2   2   2   2   2   2
                       5   5   5   5   5   5   5   5   5
 42      1     8       0  10  10  10  10  10  10  10
                       0   7   7   7   7   7   7   7
                       0   2   2   2   2   2   2   2
                       0   5   5   5   5   5   5   5
 43      1    10       8   0   8   8   8   8   8   8   8   8
                       1   0   1   1   1   1   1   1   1   1
                      10   0  10  10  10  10  10  10  10  10
                       7   0   7   7   7   7   7   7   7   7
 44      1    10       9   9   9   9   0   9   9   9   9   9
                       9   9   9   9   0   9   9   9   9   9
                       5   5   5   5   0   5   5   5   5   5
                       2   2   2   2   0   2   2   2   2   2
 45      1     1       6
                       7
                       2
                       8
 46      1     3       1   1   1
                      10  10  10
                       4   4   4
                      10  10  10
 47      1     1       6
                       6
                       2
                       7
 48      1     5      10   0  10  10  10
                       5   0   5   5   5
                       7   0   7   7   7
                       1   0   1   1   1
 49      1     2       7   7
                       6   6
                       8   8
                      10  10
 50      1     9       8   8   0   0   8   8   8   8   8
                       6   6   0   0   6   6   6   6   6
                       9   9   0   0   9   9   9   9   9
                       3   3   0   0   3   3   3   3   3
 51      1     2       1   1
                       3   3
                       5   5
                       9   9
 52      1     2       2   2
                       7   7
                       4   4
                       6   6
 53      1     3       8   8   8
                       4   4   4
                       2   2   2
                       9   9   9
 54      1     6       3   3   0   3   3   3
                       4   4   0   4   4   4
                       3   3   0   3   3   3
                       5   5   0   5   5   5
 55      1     9       1   1   1   1   1   1   1   1   1
                       4   4   4   4   4   4   4   4   4
                       3   3   3   3   3   3   3   3   3
                       8   8   8   8   8   8   8   8   8
 56      1     7       0   4   4   4   4   4   4
                       0   1   1   1   1   1   1
                       0   6   6   6   6   6   6
                       0   9   9   9   9   9   9
 57      1     1       0
                       0
                       0
                       0
 58      1    10       5   5   5   5   5   5   5   5   5   5
                      10  10  10  10  10  10  10  10  10  10
                       5   5   5   5   5   5   5   5   5   5
                       6   6   6   6   6   6   6   6   6   6
 59      1     7       1   1   1   1   1   1   1
                       4   4   4   4   4   4   4
                       8   8   8   8   8   8   8
                       2   2   2   2   2   2   2
 60      1     8       6   6   6   6   6   6   0   6
                       3   3   3   3   3   3   0   3
                       2   2   2   2   2   2   0   2
                       3   3   3   3   3   3   0   3
 61      1     7      10  10  10  10  10  10  10
                       1   1   1   1   1   1   1
                       2   2   2   2   2   2   2
                       5   5   5   5   5   5   5
 62      1     8       4   4   4   4   4   4   4   4
                       1   1   1   1   1   1   1   1
                      10  10  10  10  10  10  10  10
                       7   7   7   7   7   7   7   7
 63      1     1       4
                      10
                       8
                       4
 64      1     4      10  10  10  10
                       3   3   3   3
                      10  10  10  10
                       4   4   4   4
 65      1     3       3   3   3
                       9   9   9
                       9   9   9
                       8   8   8
 66      1     3      10  10  10
                       3   3   3
                       2   2   2
                       1   1   1
 67      1     1       7
                      10
                       3
                       9
 68      1     3      10  10  10
                       5   5   5
                       6   6   6
                       4   4   4
 69      1     1       7
                       2
                       8
                       4
 70      1     2       4   4
                       9   9
                      10  10
                       3   3
 71      1     5       5   5   5   5   5
                       6   6   6   6   6
                       1   1   1   1   1
                       3   3   3   3   3
 72      1     7       7   7   7   7   7   7   7
                       2   2   2   2   2   2   2
                       7   7   7   7   7   7   7
                       9   9   9   9   9   9   9
 73      1     8       5   0   5   5   5   5   5   0
                      10   0  10  10  10  10  10   0
                       3   0   3   3   3   3   3   0
                       7   0   7   7   7   7   7   0
 74      1     9       9   9   9   9   9   9   9   9   9
                       2   2   2   2   2   2   2   2   2
                       2   2   2   2   2   2   2   2   2
                       8   8   8   8   8   8   8   8   8
 75      1     5       1   1   1   1   1
                       9   9   9   9   9
                       6   6   6   6   6
                       7   7   7   7   7
 76      1     6       7   7   7   7   0   7
                       2   2   2   2   0   2
                       4   4   4   4   0   4
                       3   3   3   3   0   3
 77      1     5       0   2   2   2   2
                       0   2   2   2   2
                       0   4   4   4   4
                       0   7   7   7   7
 78      1     9      10  10   0  10  10  10  10   0   0
                       9   9   0   9   9   9   9   0   0
                       5   5   0   5   5   5   5   0   0
                       1   1   0   1   1   1   1   0   0
 79      1     6       6   6   6   0   6   6
                      10  10  10   0  10  10
                      10  10  10   0  10  10
                       5   5   5   0   5   5
 80      1     9       3   3   3   3   3   3   3   3   3
                       7   7   7   7   7   7   7   7   7
                       5   5   5   5   5   5   5   5   5
                       3   3   3   3   3   3   3   3   3
 81      1     9       4   4   4   4   0   4   4   4   4
                      10  10  10  10   0  10  10  10  10
                       6   6   6   6   0   6   6   6   6
                      10  10  10  10   0  10  10  10  10
 82      1    10       5   5   5   5   5   5   5   5   5   0
                       4   4   4   4   4   4   4   4   4   0
                       2   2   2   2   2   2   2   2   2   0
                       8   8   8   8   8   8   8   8   8   0
 83      1     3       4   4   4
                       7   7   7
                       8   8   8
                      10  10  10
 84      1     9       2   0   2   2   2   2   2   2   2
                       9   0   9   9   9   9   9   9   9
                       8   0   8   8   8   8   8   8   8
                       2   0   2   2   2   2   2   2   2
 85      1     5       7   7   7   7   7
                       7   7   7   7   7
                       2   2   2   2   2
                       9   9   9   9   9
 86      1     5       3   0   3   3   0
                       8   0   8   8   0
                       9   0   9   9   0
                      10   0  10  10   0
 87      1     8       2   2   2   2   2   2   2   2
                      10  10  10  10  10  10  10  10
                       9   9   9   9   9   9   9   9
                      10  10  10  10  10  10  10  10
 88      1     9       4   4   4   4   4   4   4   4   4
                      10  10  10  10  10  10  10  10  10
                       7   7   7   7   7   7   7   7   7
                       7   7   7   7   7   7   7   7   7
 89      1     5      10  10  10  10  10
                       1   1   1   1   1
                       5   5   5   5   5
                       7   7   7   7   7
 90      1     5       5   5   5   5   5
                       3   3   3   3   3
                       4   4   4   4   4
                       2   2   2   2   2
 91      1    10      10  10  10  10  10  10  10  10  10  10
                      10  10  10  10  10  10  10  10  10  10
                       6   6   6   6   6   6   6   6   6   6
                       8   8   8   8   8   8   8   8   8   8
 92      1     4       9   9   9   9
                      10  10  10  10
                      10  10  10  10
                       6   6   6   6
 93      1     4       4   4   4   4
                      10  10  10  10
                       9   9   9   9
                       7   7   7   7
 94      1     3       0   6   6
                       0   3   3
                       0   6   6
                       0   4   4
 95      1     4       5   5   5   5
                       4   4   4   4
                       4   4   4   4
                       9   9   9   9
 96      1     9       6   6   6   6   6   6   6   6   6
                       1   1   1   1   1   1   1   1   1
                       3   3   3   3   3   3   3   3   3
                       5   5   5   5   5   5   5   5   5
 97      1     4       7   0   7   7
                       7   0   7   7
                       7   0   7   7
                       6   0   6   6
 98      1     5       7   7   7   7   7
                      10  10  10  10  10
                       6   6   6   6   6
                       7   7   7   7   7
 99      1     5       6   6   6   6   6
                       4   4   4   4   4
                       2   2   2   2   2
                       8   8   8   8   8
100      1     8       3   3   3   3   3   3   3   3
                       6   6   6   6   6   6   6   6
                       9   9   9   9   9   9   9   9
                      10  10  10  10  10  10  10  10
101      1     5       7   7   0   7   7
                       1   1   0   1   1
                       8   8   0   8   8
                       1   1   0   1   1
102      1    10       5   5   5   5   5   5   5   5   5   5
                       7   7   7   7   7   7   7   7   7   7
                      10  10  10  10  10  10  10  10  10  10
                       3   3   3   3   3   3   3   3   3   3
103      1    10       1   1   1   1   1   1   1   1   1   1
                      10  10  10  10  10  10  10  10  10  10
                       5   5   5   5   5   5   5   5   5   5
                       5   5   5   5   5   5   5   5   5   5
104      1     3       3   3   3
                       2   2   2
                      10  10  10
                       9   9   9
105      1     3       4   4   4
                       5   5   5
                       5   5   5
                       6   6   6
106      1     7       5   5   5   5   5   5   5
                       3   3   3   3   3   3   3
                       8   8   8   8   8   8   8
                       7   7   7   7   7   7   7
107      1     4      10  10  10  10
                       4   4   4   4
                       6   6   6   6
                       4   4   4   4
108      1     5       9   9   9   9   9
                       7   7   7   7   7
                       5   5   5   5   5
                      10  10  10  10  10
109      1     8       5   5   5   5   5   5   5   0
                       3   3   3   3   3   3   3   0
                       4   4   4   4   4   4   4   0
                      10  10  10  10  10  10  10   0
110      1     6       7   7   7   7   0   0
                       3   3   3   3   0   0
                       7   7   7   7   0   0
                       6   6   6   6   0   0
111      1     7       7   7   7   7   7   7   7
                       2   2   2   2   2   2   2
                       4   4   4   4   4   4   4
                       1   1   1   1   1   1   1
112      1     8       8   0   8   8   8   8   8   8
                       6   0   6   6   6   6   6   6
                       2   0   2   2   2   2   2   2
                      10   0  10  10  10  10  10  10
113      1     9       4   4   4   4   4   4   4   4   4
                       8   8   8   8   8   8   8   8   8
                       1   1   1   1   1   1   1   1   1
                       9   9   9   9   9   9   9   9   9
114      1     6       2   2   2   2   2   2
                       4   4   4   4   4   4
                       8   8   8   8   8   8
                       5   5   5   5   5   5
115      1     9       6   6   0   6   6   6   6   6   0
                       4   4   0   4   4   4   4   4   0
                       3   3   0   3   3   3   3   3   0
                       1   1   0   1   1   1   1   1   0
116      1     7      10  10  10  10  10  10  10
                       1   1   1   1   1   1   1
                       1   1   1   1   1   1   1
                       4   4   4   4   4   4   4
117      1     6       9   9   9   9   9   9
                       8   8   8   8   8   8
                       6   6   6   6   6   6
                       5   5   5   5   5   5
118      1     9       0   5   5   5   5   5   0   5   5
                       0   5   5   5   5   5   0   5   5
                       0   6   6   6   6   6   0   6   6
                       0   6   6   6   6   6   0   6   6
119      1     9       0   5   5   5   5   5   5   5   5
                       0  10  10  10  10  10  10  10  10
                       0   3   3   3   3   3   3   3   3
                       0   8   8   8   8   8   8   8   8
120      1     3       5   5   5
                       7   7   7
                       4   4   4
                       9   9   9
121      1    10       4   4   4   4   4   4   4   4   4   4
                       2   2   2   2   2   2   2   2   2   2
                      10  10  10  10  10  10  10  10  10  10
                       7   7   7   7   7   7   7   7   7   7
122      1     0    
************************************************************************
RESOURCEAVAILABILITIES:
  R 1  R 2  R 3  R 4

  21  21  21  21  21  21  21  21  21  21  21  21  21  21  21  21  21  21  21  21  21  21  21  21  21  21  21  21  21  21  21  21  21  21  21  21  21  21   0  21  21   0  21  21  21  21  21   0  21   0  21  21  21  21  21  21  21  21  21  21  21  21  21  21  21  21  21  21  21   0  21  21   0  21  21  21  21  21   0  21  21  21  21  21  21   0  21  21  21  21  21  21  21  21  21  21  21  21   0   0  21  21  21  21  21  21  21  21  21  21  21  21  21  21  21  21  21  21  21  21  21  21  21   0  21  21  21   0  21  21  21  21  21  21  21  21  21  21  21  21  21  21  21  21  21  21  21  21  21  21  21  21  21  21  21  21   0  21   0   0  21  21  21  21   0  21  21  21  21  21  21   0  21  21  21  21  21  21  21  21  21   0  21  21  21   0  21  21  21  21  21  21  21  21  21   0  21   0  21  21   0  21  21  21  21  21  21  21  21  21  21  21  21  21  21  21  21  21   0  21  21  21  21  21  21  21  21  21   0  21  21  21  21  21   0  21  21  21  21   0  21  21  21  21  21  21   0  21  21  21  21  21  21  21  21  21  21  21  21  21  21  21  21  21  21  21  21  21  21  21  21  21  21  21  21  21  21  21  21   0  21  21  21  21  21  21  21  21  21   0  21  21  21  21  21  21  21  21   0   0  21  21  21  21   0  21  21  21  21  21  21  21  21  21  21  21  21   0  21  21  21  21  21  21  21  21  21  21   0  21  21  21  21  21  21  21  21  21  21  21  21  21  21  21   0  21  21  21  21   0  21  21   0  21  21  21  21  21  21   0   0  21  21  21  21   0  21  21  21  21  21  21  21  21   0  21  21  21  21  21  21  21  21  21  21  21  21  21   0   0  21  21  21  21  21   0  21  21  21  21  21  21  21  21  21   0  21  21  21  21  21  21   0  21  21  21  21  21  21  21  21  21  21  21  21  21  21  21  21  21  21  21  21  21  21  21  21   0  21  21  21  21  21  21  21  21  21  21  21  21  21   0  21   0  21  21  21  21  21   0  21  21  21  21  21  21  21  21   0  21  21  21  21  21  21  21  21  21  21  21  21  21   0  21  21  21  21   0  21  21  21  21  21  21  21  21  21  21  21  21   0  21  21  21  21  21  21  21  21  21  21  21  21  21  21  21  21  21   0  21   0  21  21  21  21  21  21  21  21  21  21  21  21  21  21  21  21  21   0  21  21  21  21  21  21  21  21  21  21  21  21  21  21  21  21  21   0  21  21  21  21  21  21  21  21  21  21  21  21  21   0  21  21  21  21  21  21   0   0  21   0   0  21  21  21  21   0   0  21  21  21  21  21  21  21  21  21  21  21   0  21  21  21  21  21  21  21  21  21  21  21  21  21  21  21  21  21  21  21  21  21  21  21  21   0  21   0  21  21  21  21  21  21  21   0  21  21  21  21  21  21  21  21  21  21  21  21  21  21  21   0  21  21  21  21  21  21  21  21  21  21  21  21  21  21  21   0  21  21  21  21  21   0  21  21  21  21  21

  23  23  23  23  23  23  23  23  23  23  23  23  23  23  23  23  23  23  23  23  23  23  23  23  23  23  23  23  23  23  23  23  23  23  23  23  23  23   0  23  23   0  23  23  23  23  23   0  23   0  23  23  23  23  23  23  23  23  23  23  23  23  23  23  23  23  23  23  23   0  23  23   0  23  23  23  23  23   0  23  23  23  23  23  23   0  23  23  23  23  23  23  23  23  23  23  23  23   0   0  23  23  23  23  23  23  23  23  23  23  23  23  23  23  23  23  23  23  23  23  23  23  23   0  23  23  23   0  23  23  23  23  23  23  23  23  23  23  23  23  23  23  23  23  23  23  23  23  23  23  23  23  23  23  23  23   0  23   0   0  23  23  23  23   0  23  23  23  23  23  23   0  23  23  23  23  23  23  23  23  23   0  23  23  23   0  23  23  23  23  23  23  23  23  23   0  23   0  23  23   0  23  23  23  23  23  23  23  23  23  23  23  23  23  23  23  23  23   0  23  23  23  23  23  23  23  23  23   0  23  23  23  23  23   0  23  23  23  23   0  23  23  23  23  23  23   0  23  23  23  23  23  23  23  23  23  23  23  23  23  23  23  23  23  23  23  23  23  23  23  23  23  23  23  23  23  23  23  23   0  23  23  23  23  23  23  23  23  23   0  23  23  23  23  23  23  23  23   0   0  23  23  23  23   0  23  23  23  23  23  23  23  23  23  23  23  23   0  23  23  23  23  23  23  23  23  23  23   0  23  23  23  23  23  23  23  23  23  23  23  23  23  23  23   0  23  23  23  23   0  23  23   0  23  23  23  23  23  23   0   0  23  23  23  23   0  23  23  23  23  23  23  23  23   0  23  23  23  23  23  23  23  23  23  23  23  23  23   0   0  23  23  23  23  23   0  23  23  23  23  23  23  23  23  23   0  23  23  23  23  23  23   0  23  23  23  23  23  23  23  23  23  23  23  23  23  23  23  23  23  23  23  23  23  23  23  23   0  23  23  23  23  23  23  23  23  23  23  23  23  23   0  23   0  23  23  23  23  23   0  23  23  23  23  23  23  23  23   0  23  23  23  23  23  23  23  23  23  23  23  23  23   0  23  23  23  23   0  23  23  23  23  23  23  23  23  23  23  23  23   0  23  23  23  23  23  23  23  23  23  23  23  23  23  23  23  23  23   0  23   0  23  23  23  23  23  23  23  23  23  23  23  23  23  23  23  23  23   0  23  23  23  23  23  23  23  23  23  23  23  23  23  23  23  23  23   0  23  23  23  23  23  23  23  23  23  23  23  23  23   0  23  23  23  23  23  23   0   0  23   0   0  23  23  23  23   0   0  23  23  23  23  23  23  23  23  23  23  23   0  23  23  23  23  23  23  23  23  23  23  23  23  23  23  23  23  23  23  23  23  23  23  23  23   0  23   0  23  23  23  23  23  23  23   0  23  23  23  23  23  23  23  23  23  23  23  23  23  23  23   0  23  23  23  23  23  23  23  23  23  23  23  23  23  23  23   0  23  23  23  23  23   0  23  23  23  23  23

  22  22  22  22  22  22  22  22  22  22  22  22  22  22  22  22  22  22  22  22  22  22  22  22  22  22  22  22  22  22  22  22  22  22  22  22  22  22   0  22  22   0  22  22  22  22  22   0  22   0  22  22  22  22  22  22  22  22  22  22  22  22  22  22  22  22  22  22  22   0  22  22   0  22  22  22  22  22   0  22  22  22  22  22  22   0  22  22  22  22  22  22  22  22  22  22  22  22   0   0  22  22  22  22  22  22  22  22  22  22  22  22  22  22  22  22  22  22  22  22  22  22  22   0  22  22  22   0  22  22  22  22  22  22  22  22  22  22  22  22  22  22  22  22  22  22  22  22  22  22  22  22  22  22  22  22   0  22   0   0  22  22  22  22   0  22  22  22  22  22  22   0  22  22  22  22  22  22  22  22  22   0  22  22  22   0  22  22  22  22  22  22  22  22  22   0  22   0  22  22   0  22  22  22  22  22  22  22  22  22  22  22  22  22  22  22  22  22   0  22  22  22  22  22  22  22  22  22   0  22  22  22  22  22   0  22  22  22  22   0  22  22  22  22  22  22   0  22  22  22  22  22  22  22  22  22  22  22  22  22  22  22  22  22  22  22  22  22  22  22  22  22  22  22  22  22  22  22  22   0  22  22  22  22  22  22  22  22  22   0  22  22  22  22  22  22  22  22   0   0  22  22  22  22   0  22  22  22  22  22  22  22  22  22  22  22  22   0  22  22  22  22  22  22  22  22  22  22   0  22  22  22  22  22  22  22  22  22  22  22  22  22  22  22   0  22  22  22  22   0  22  22   0  22  22  22  22  22  22   0   0  22  22  22  22   0  22  22  22  22  22  22  22  22   0  22  22  22  22  22  22  22  22  22  22  22  22  22   0   0  22  22  22  22  22   0  22  22  22  22  22  22  22  22  22   0  22  22  22  22  22  22   0  22  22  22  22  22  22  22  22  22  22  22  22  22  22  22  22  22  22  22  22  22  22  22  22   0  22  22  22  22  22  22  22  22  22  22  22  22  22   0  22   0  22  22  22  22  22   0  22  22  22  22  22  22  22  22   0  22  22  22  22  22  22  22  22  22  22  22  22  22   0  22  22  22  22   0  22  22  22  22  22  22  22  22  22  22  22  22   0  22  22  22  22  22  22  22  22  22  22  22  22  22  22  22  22  22   0  22   0  22  22  22  22  22  22  22  22  22  22  22  22  22  22  22  22  22   0  22  22  22  22  22  22  22  22  22  22  22  22  22  22  22  22  22   0  22  22  22  22  22  22  22  22  22  22  22  22  22   0  22  22  22  22  22  22   0   0  22   0   0  22  22  22  22   0   0  22  22  22  22  22  22  22  22  22  22  22   0  22  22  22  22  22  22  22  22  22  22  22  22  22  22  22  22  22  22  22  22  22  22  22  22   0  22   0  22  22  22  22  22  22  22   0  22  22  22  22  22  22  22  22  22  22  22  22  22  22  22   0  22  22  22  22  22  22  22  22  22  22  22  22  22  22  22   0  22  22  22  22  22   0  22  22  22  22  22

  21  21  21  21  21  21  21  21  21  21  21  21  21  21  21  21  21  21  21  21  21  21  21  21  21  21  21  21  21  21  21  21  21  21  21  21  21  21   0  21  21   0  21  21  21  21  21   0  21   0  21  21  21  21  21  21  21  21  21  21  21  21  21  21  21  21  21  21  21   0  21  21   0  21  21  21  21  21   0  21  21  21  21  21  21   0  21  21  21  21  21  21  21  21  21  21  21  21   0   0  21  21  21  21  21  21  21  21  21  21  21  21  21  21  21  21  21  21  21  21  21  21  21   0  21  21  21   0  21  21  21  21  21  21  21  21  21  21  21  21  21  21  21  21  21  21  21  21  21  21  21  21  21  21  21  21   0  21   0   0  21  21  21  21   0  21  21  21  21  21  21   0  21  21  21  21  21  21  21  21  21   0  21  21  21   0  21  21  21  21  21  21  21  21  21   0  21   0  21  21   0  21  21  21  21  21  21  21  21  21  21  21  21  21  21  21  21  21   0  21  21  21  21  21  21  21  21  21   0  21  21  21  21  21   0  21  21  21  21   0  21  21  21  21  21  21   0  21  21  21  21  21  21  21  21  21  21  21  21  21  21  21  21  21  21  21  21  21  21  21  21  21  21  21  21  21  21  21  21   0  21  21  21  21  21  21  21  21  21   0  21  21  21  21  21  21  21  21   0   0  21  21  21  21   0  21  21  21  21  21  21  21  21  21  21  21  21   0  21  21  21  21  21  21  21  21  21  21   0  21  21  21  21  21  21  21  21  21  21  21  21  21  21  21   0  21  21  21  21   0  21  21   0  21  21  21  21  21  21   0   0  21  21  21  21   0  21  21  21  21  21  21  21  21   0  21  21  21  21  21  21  21  21  21  21  21  21  21   0   0  21  21  21  21  21   0  21  21  21  21  21  21  21  21  21   0  21  21  21  21  21  21   0  21  21  21  21  21  21  21  21  21  21  21  21  21  21  21  21  21  21  21  21  21  21  21  21   0  21  21  21  21  21  21  21  21  21  21  21  21  21   0  21   0  21  21  21  21  21   0  21  21  21  21  21  21  21  21   0  21  21  21  21  21  21  21  21  21  21  21  21  21   0  21  21  21  21   0  21  21  21  21  21  21  21  21  21  21  21  21   0  21  21  21  21  21  21  21  21  21  21  21  21  21  21  21  21  21   0  21   0  21  21  21  21  21  21  21  21  21  21  21  21  21  21  21  21  21   0  21  21  21  21  21  21  21  21  21  21  21  21  21  21  21  21  21   0  21  21  21  21  21  21  21  21  21  21  21  21  21   0  21  21  21  21  21  21   0   0  21   0   0  21  21  21  21   0   0  21  21  21  21  21  21  21  21  21  21  21   0  21  21  21  21  21  21  21  21  21  21  21  21  21  21  21  21  21  21  21  21  21  21  21  21   0  21   0  21  21  21  21  21  21  21   0  21  21  21  21  21  21  21  21  21  21  21  21  21  21  21   0  21  21  21  21  21  21  21  21  21  21  21  21  21  21  21   0  21  21  21  21  21   0  21  21  21  21  21

************************************************************************
